(declare-const income Real)
(declare-const fee_bl Real)
(declare-const p3 Real)
(declare-const p1 Real)
(declare-const p2 Real)
(declare-const p12 Real)
(declare-const p6 Real)
(declare-const p10 Real)
(declare-const p8 Real)
(declare-const p11 Real)
(declare-const p4 Real)
(declare-const p7 Real)
(declare-const p5 Real)
(declare-const p9 Real)
(assert (= p1 (* 0.014 (ite (> income 19200) 19200 income))))
(assert (= p2 (ite (> income 19200) (* 0.032 (- (ite (> income 28800) 28800 income) 19200)) 0)))
(assert (= p3 (ite (> income 28800) (* 0.055 (- (ite (> income 38400) 38400 income) 28800)) 0)))
(assert (= p4 (ite (> income 38400) (* 0.064 (- (ite (> income 48000) 48000 income) 38400)) 0)))
(assert (= p5 (ite (> income 48000) (* 0.068 (- (ite (> income 72000) 72000 income) 48000)) 0)))
(assert (= p6 (ite (> income 72000) (* 0.072 (- (ite (> income 96000) 96000 income) 72000)) 0)))
(assert (= p7 (ite (> income 96000) (* 0.076 (- (ite (> income 250000) 250000 income) 96000)) 0)))
(assert (= p8 (ite (> income 250000) (* 0.079 (- (ite (> income 350000) 350000 income) 250000)) 0)))
(assert (= p9 (ite (> income 350000) (* 0.0825 (- (ite (> income 450000) 450000 income) 350000)) 0)))
(assert (= p10 (ite (> income 450000) (* 0.09 (- (ite (> income 550000) 550000 income) 450000)) 0)))
(assert (= p11 (ite (> income 550000) (* 0.10 (- (ite (> income 650000) 650000 income) 550000)) 0)))
(assert (= p12 (ite (> income 650000) (* 0.11 (- income 650000)) 0)))
(assert (= fee_bl (+ (+ (+ (+ (+ (+ (+ (+ (+ (+ (+ p1 p2) p3) p4) p5) p6) p7) p8) p9) p10) p11) p12)))